NAME : STSP_75-2over3.1.5.1029.tour
COMMENT : Length = 1029
COMMENT : Found by LKH-3 [Keld Helsgaun]
TYPE : TOUR
DIMENSION : 50
TOUR_SECTION
12
71
61
1
3
37
63
73
27
54
10
2
22
33
35
56
57
56
16
59
19
29
65
18
65
67
43
39
49
30
52
42
6
60
34
51
15
21
75
21
15
4
28
72
66
45
47
62
58
20
32
25
64
41
44
55
24
74
46
8
36
23
70
53
7
53
48
50
40
-1
EOF
